language ESSENCE' 1.0

letting fixed be 
[
    [0,0,0,0,2,3,0,0,0],
    [6,2,0,5,9,8,0,0,4],
    [0,0,0,7,0,6,5,2,0],
    [5,9,8,0,6,2,0,4,0],
    [2,0,1,0,7,5,8,0,6],
    [0,7,6,8,0,0,0,5,2],
    [0,6,2,0,0,7,0,0,0],
    [8,0,0,6,3,4,2,0,9],
    [0,0,0,2,0,0,0,0,0]
]